JulietBench/Juliet_Based_Patch_Bench/linux/CWE-189-Numeric-Errors/CVE_2014_2889_a03ffcf873fe0f2565386ca8ef832144c42e67fa/Resultbpf_jit_compile_SnippetNEQ.smt2
; benchmark generated from python API
(set-info :status unknown)
(declare-fun rdi () (_ BitVec 64))
(declare-fun R () (_ BitVec 32))
(declare-fun rsi () (_ BitVec 64))
(assert
 (let ((?x6 ((_ extract 31 0) rdi)))
 (let ((?x167 (bvadd (_ bv5 32) ?x6)))
 (let (($x182 (= R ?x167)))
 (let ((?x8 ((_ extract 31 0) rsi)))
 (let (($x43 (bvslt (_ bv127 32) ?x8)))
 (let (($x184 (and $x43 $x182)))
 (let (($x13 (bvsge (_ bv127 32) ?x8)))
 (let (($x47 (bvsgt (_ bv4294967168 32) ?x8)))
 (let (($x183 (and $x47 $x13 $x182)))
 (let ((?x159 (bvadd (_ bv2 32) ?x6)))
 (let (($x178 (= R ?x159)))
 (let (($x52 (bvsle (_ bv4294967168 32) ?x8)))
 (let (($x177 (and $x52 $x13 $x178)))
 (let (($x185 (or $x177 $x183 $x184)))
 (let (($x188 (not $x185)))
 (let ((?x36 (bvadd (_ bv6 32) ?x6)))
 (let (($x171 (= R ?x36)))
 (let (($x180 (and $x43 $x171)))
 (let (($x176 (and $x47 $x13 $x171)))
 (let (($x181 (or $x177 $x176 $x180)))
 (let (($x187 (not $x181)))
 (let (($x189 (and $x187 $x188)))
 (let (($x186 (and $x181 $x185)))
 (let (($x190 (or $x186 $x189)))
 (not $x190))))))))))))))))))))))))))
(check-sat)
